-305.0 5.0 10.0 6.0 10.0 9.0 5.0 0.0 2.0 1.0 5.0 7.0 8.0 10.0 2.0 5.0 3.0 9.0 2.0 3.0 9.0 3.0 10.0 2.0 3.0 6.0 10.0 5.0 8.0 2.0 8.0 7.0 5.0 6.0 9.0 1.0 1.0 5.0 10.0 1.0 2.0 3.0 2.0 5.0 6.0 9.0 9.0 2.0 0.0 9.0 1.0 0.0 9.0 7.0 10.0 2.0 6.0 3.0 7.0 0.0 0.0 
5.0 -290.0 7.0 8.0 9.0 4.0 6.0 3.0 3.0 8.0 10.0 4.0 1.0 7.0 10.0 2.0 4.0 2.0 4.0 1.0 7.0 5.0 7.0 8.0 3.0 1.0 4.0 1.0 9.0 8.0 9.0 4.0 4.0 7.0 6.0 7.0 1.0 8.0 3.0 3.0 3.0 2.0 2.0 6.0 7.0 3.0 10.0 2.0 8.0 2.0 8.0 7.0 9.0 6.0 10.0 2.0 0.0 0.0 0.0 0.0 0.0 
10.0 7.0 -307.0 5.0 8.0 9.0 5.0 1.0 9.0 2.0 4.0 8.0 2.0 7.0 1.0 8.0 9.0 7.0 8.0 9.0 7.0 6.0 5.0 1.0 7.0 8.0 8.0 6.0 10.0 7.0 9.0 9.0 3.0 10.0 8.0 0.0 6.0 8.0 1.0 0.0 2.0 10.0 2.0 8.0 3.0 1.0 2.0 0.0 0.0 1.0 2.0 2.0 3.0 6.0 3.0 6.0 4.0 3.0 5.0 6.0 0.0 
6.0 8.0 5.0 -319.0 8.0 9.0 4.0 4.0 1.0 4.0 2.0 4.0 9.0 10.0 0.0 6.0 2.0 4.0 3.0 3.0 7.0 8.0 5.0 6.0 10.0 7.0 9.0 2.0 8.0 9.0 5.0 7.0 5.0 1.0 2.0 0.0 6.0 0.0 6.0 10.0 9.0 2.0 9.0 5.0 10.0 1.0 7.0 0.0 7.0 7.0 7.0 3.0 1.0 8.0 7.0 10.0 2.0 2.0 10.0 3.0 4.0 
10.0 9.0 8.0 8.0 -292.0 7.0 8.0 10.0 1.0 6.0 9.0 5.0 5.0 4.0 1.0 3.0 8.0 4.0 7.0 6.0 5.0 0.0 6.0 1.0 2.0 10.0 4.0 1.0 1.0 4.0 8.0 1.0 6.0 0.0 2.0 0.0 6.0 5.0 5.0 4.0 4.0 2.0 3.0 1.0 8.0 4.0 6.0 6.0 4.0 2.0 3.0 8.0 1.0 7.0 4.0 6.0 4.0 9.0 3.0 10.0 7.0 
9.0 4.0 9.0 9.0 7.0 -326.0 6.0 2.0 7.0 6.0 8.0 8.0 6.0 6.0 9.0 1.0 6.0 7.0 3.0 2.0 7.0 2.0 7.0 3.0 5.0 1.0 7.0 1.0 5.0 9.0 0.0 3.0 1.0 5.0 5.0 7.0 8.0 8.0 7.0 7.0 6.0 7.0 8.0 2.0 7.0 8.0 6.0 3.0 10.0 1.0 8.0 2.0 3.0 4.0 10.0 0.0 2.0 6.0 7.0 7.0 6.0 
5.0 6.0 5.0 4.0 8.0 6.0 -271.0 0.0 0.0 3.0 8.0 1.0 4.0 9.0 2.0 6.0 10.0 4.0 0.0 10.0 6.0 5.0 1.0 10.0 4.0 9.0 9.0 5.0 0.0 1.0 2.0 0.0 7.0 2.0 1.0 8.0 5.0 6.0 4.0 3.0 6.0 2.0 10.0 1.0 1.0 0.0 3.0 6.0 10.0 0.0 6.0 3.0 1.0 8.0 5.0 9.0 1.0 7.0 1.0 2.0 10.0 
0.0 3.0 1.0 4.0 10.0 2.0 0.0 -298.0 9.0 3.0 6.0 2.0 1.0 4.0 5.0 4.0 1.0 4.0 3.0 7.0 0.0 7.0 3.0 7.0 9.0 3.0 0.0 4.0 2.0 9.0 1.0 1.0 9.0 7.0 8.0 5.0 9.0 3.0 7.0 10.0 3.0 4.0 7.0 0.0 9.0 9.0 7.0 10.0 9.0 9.0 4.0 6.0 6.0 9.0 4.0 9.0 3.0 0.0 2.0 5.0 10.0 
2.0 3.0 9.0 1.0 1.0 7.0 0.0 9.0 -289.0 5.0 9.0 1.0 4.0 0.0 3.0 2.0 5.0 8.0 6.0 8.0 9.0 9.0 6.0 2.0 10.0 4.0 1.0 2.0 7.0 9.0 2.0 7.0 1.0 10.0 10.0 6.0 2.0 8.0 5.0 0.0 4.0 6.0 9.0 1.0 1.0 0.0 4.0 4.0 7.0 10.0 7.0 8.0 4.0 1.0 5.0 4.0 6.0 0.0 4.0 7.0 4.0 
1.0 8.0 2.0 4.0 6.0 6.0 3.0 3.0 5.0 -288.0 1.0 0.0 7.0 2.0 4.0 5.0 10.0 8.0 0.0 3.0 4.0 0.0 10.0 0.0 6.0 1.0 4.0 6.0 8.0 2.0 8.0 9.0 0.0 3.0 4.0 6.0 0.0 7.0 8.0 1.0 3.0 7.0 5.0 9.0 10.0 2.0 2.0 6.0 10.0 9.0 8.0 7.0 7.0 8.0 2.0 8.0 4.0 8.0 0.0 7.0 1.0 
5.0 10.0 4.0 2.0 9.0 8.0 8.0 6.0 9.0 1.0 -318.0 6.0 10.0 8.0 10.0 10.0 1.0 2.0 1.0 2.0 5.0 0.0 4.0 10.0 7.0 6.0 3.0 0.0 7.0 3.0 5.0 5.0 8.0 8.0 0.0 4.0 1.0 6.0 2.0 5.0 9.0 2.0 6.0 0.0 4.0 4.0 7.0 10.0 10.0 10.0 6.0 5.0 6.0 6.0 1.0 9.0 6.0 6.0 1.0 3.0 6.0 
7.0 4.0 8.0 4.0 5.0 8.0 1.0 2.0 1.0 0.0 6.0 -290.0 0.0 4.0 7.0 6.0 4.0 9.0 8.0 0.0 2.0 3.0 10.0 3.0 0.0 7.0 8.0 5.0 7.0 7.0 8.0 6.0 10.0 3.0 5.0 1.0 0.0 6.0 10.0 7.0 9.0 4.0 7.0 2.0 8.0 6.0 4.0 3.0 2.0 0.0 4.0 6.0 6.0 2.0 6.0 7.0 5.0 7.0 2.0 1.0 7.0 
8.0 1.0 2.0 9.0 5.0 6.0 4.0 1.0 4.0 7.0 10.0 0.0 -297.0 1.0 4.0 6.0 7.0 8.0 7.0 6.0 10.0 3.0 1.0 6.0 2.0 2.0 8.0 2.0 10.0 5.0 9.0 3.0 9.0 7.0 4.0 3.0 2.0 2.0 10.0 1.0 5.0 0.0 8.0 5.0 7.0 6.0 0.0 8.0 7.0 9.0 6.0 3.0 10.0 0.0 5.0 3.0 7.0 0.0 7.0 3.0 3.0 
10.0 7.0 7.0 10.0 4.0 6.0 9.0 4.0 0.0 2.0 8.0 4.0 1.0 -299.0 10.0 10.0 8.0 5.0 6.0 6.0 2.0 3.0 5.0 4.0 7.0 0.0 9.0 1.0 6.0 7.0 4.0 0.0 4.0 0.0 10.0 3.0 4.0 4.0 10.0 5.0 8.0 7.0 3.0 6.0 4.0 10.0 4.0 3.0 8.0 0.0 10.0 3.0 2.0 7.0 3.0 0.0 0.0 4.0 0.0 3.0 9.0 
2.0 10.0 1.0 0.0 1.0 9.0 2.0 5.0 3.0 4.0 10.0 7.0 4.0 10.0 -318.0 0.0 9.0 4.0 3.0 3.0 6.0 4.0 4.0 0.0 2.0 1.0 3.0 1.0 4.0 5.0 9.0 10.0 8.0 5.0 6.0 3.0 3.0 4.0 8.0 2.0 9.0 9.0 0.0 9.0 8.0 7.0 8.0 4.0 10.0 2.0 7.0 7.0 10.0 10.0 2.0 9.0 0.0 10.0 3.0 10.0 9.0 
5.0 2.0 8.0 6.0 3.0 1.0 6.0 4.0 2.0 5.0 10.0 6.0 6.0 10.0 0.0 -296.0 3.0 4.0 4.0 10.0 1.0 6.0 10.0 9.0 8.0 9.0 9.0 6.0 3.0 3.0 10.0 6.0 1.0 5.0 7.0 5.0 6.0 8.0 9.0 4.0 6.0 5.0 6.0 8.0 3.0 2.0 0.0 0.0 2.0 7.0 6.0 3.0 6.0 8.0 5.0 2.0 1.0 0.0 2.0 0.0 4.0 
3.0 4.0 9.0 2.0 8.0 6.0 10.0 1.0 5.0 10.0 1.0 4.0 7.0 8.0 9.0 3.0 -290.0 10.0 4.0 5.0 3.0 1.0 6.0 0.0 8.0 3.0 6.0 0.0 1.0 4.0 2.0 4.0 8.0 6.0 0.0 7.0 8.0 5.0 4.0 10.0 4.0 7.0 1.0 2.0 1.0 6.0 4.0 10.0 10.0 5.0 3.0 2.0 6.0 3.0 9.0 0.0 6.0 5.0 4.0 1.0 6.0 
9.0 2.0 7.0 4.0 4.0 7.0 4.0 4.0 8.0 8.0 2.0 9.0 8.0 5.0 4.0 4.0 10.0 -322.0 9.0 8.0 4.0 7.0 8.0 4.0 6.0 6.0 0.0 3.0 9.0 10.0 6.0 2.0 7.0 7.0 4.0 9.0 7.0 3.0 0.0 0.0 7.0 5.0 3.0 7.0 2.0 8.0 9.0 1.0 9.0 0.0 4.0 0.0 5.0 5.0 4.0 10.0 6.0 5.0 9.0 0.0 5.0 
2.0 4.0 8.0 3.0 7.0 3.0 0.0 3.0 6.0 0.0 1.0 8.0 7.0 6.0 3.0 4.0 4.0 9.0 -293.0 9.0 9.0 2.0 10.0 0.0 5.0 3.0 10.0 3.0 10.0 7.0 6.0 1.0 3.0 2.0 10.0 6.0 1.0 2.0 10.0 8.0 7.0 6.0 4.0 1.0 2.0 1.0 2.0 4.0 5.0 10.0 10.0 2.0 6.0 0.0 9.0 5.0 7.0 1.0 10.0 4.0 2.0 
3.0 1.0 9.0 3.0 6.0 2.0 10.0 7.0 8.0 3.0 2.0 0.0 6.0 6.0 3.0 10.0 5.0 8.0 9.0 -330.0 1.0 4.0 9.0 3.0 8.0 4.0 4.0 9.0 6.0 10.0 6.0 7.0 8.0 4.0 10.0 9.0 2.0 1.0 5.0 6.0 10.0 2.0 6.0 5.0 3.0 1.0 10.0 10.0 5.0 4.0 10.0 10.0 4.0 10.0 0.0 5.0 2.0 8.0 3.0 2.0 3.0 
9.0 7.0 7.0 7.0 5.0 7.0 6.0 0.0 9.0 4.0 5.0 2.0 10.0 2.0 6.0 1.0 3.0 4.0 9.0 1.0 -285.0 2.0 6.0 10.0 6.0 2.0 1.0 9.0 1.0 7.0 9.0 0.0 5.0 4.0 1.0 3.0 8.0 2.0 3.0 10.0 7.0 2.0 3.0 6.0 1.0 6.0 5.0 4.0 9.0 9.0 1.0 1.0 8.0 0.0 8.0 1.0 0.0 6.0 7.0 1.0 7.0 
3.0 5.0 6.0 8.0 0.0 2.0 5.0 7.0 9.0 0.0 0.0 3.0 3.0 3.0 4.0 6.0 1.0 7.0 2.0 4.0 2.0 -263.0 3.0 4.0 4.0 2.0 2.0 3.0 3.0 0.0 8.0 4.0 1.0 3.0 8.0 6.0 10.0 10.0 5.0 7.0 10.0 3.0 8.0 1.0 5.0 5.0 8.0 4.0 1.0 4.0 6.0 2.0 9.0 2.0 4.0 4.0 3.0 5.0 4.0 9.0 3.0 
10.0 7.0 5.0 5.0 6.0 7.0 1.0 3.0 6.0 10.0 4.0 10.0 1.0 5.0 4.0 10.0 6.0 8.0 10.0 9.0 6.0 3.0 -359.0 10.0 10.0 5.0 10.0 10.0 9.0 7.0 8.0 7.0 7.0 1.0 8.0 2.0 1.0 7.0 0.0 2.0 1.0 5.0 7.0 8.0 6.0 10.0 0.0 8.0 8.0 3.0 9.0 10.0 6.0 6.0 6.0 7.0 2.0 4.0 10.0 1.0 2.0 
2.0 8.0 1.0 6.0 1.0 3.0 10.0 7.0 2.0 0.0 10.0 3.0 6.0 4.0 0.0 9.0 0.0 4.0 0.0 3.0 10.0 4.0 10.0 -258.0 1.0 2.0 1.0 0.0 9.0 8.0 0.0 3.0 0.0 8.0 3.0 6.0 9.0 1.0 0.0 8.0 4.0 2.0 7.0 5.0 1.0 6.0 7.0 2.0 8.0 2.0 6.0 0.0 7.0 3.0 4.0 2.0 2.0 4.0 7.0 9.0 8.0 
3.0 3.0 7.0 10.0 2.0 5.0 4.0 9.0 10.0 6.0 7.0 0.0 2.0 7.0 2.0 8.0 8.0 6.0 5.0 8.0 6.0 4.0 10.0 1.0 -321.0 1.0 1.0 3.0 3.0 7.0 3.0 1.0 4.0 4.0 7.0 10.0 8.0 2.0 8.0 5.0 5.0 9.0 3.0 2.0 8.0 1.0 7.0 4.0 9.0 3.0 7.0 8.0 10.0 7.0 3.0 4.0 6.0 7.0 3.0 5.0 10.0 
6.0 1.0 8.0 7.0 10.0 1.0 9.0 3.0 4.0 1.0 6.0 7.0 2.0 0.0 1.0 9.0 3.0 6.0 3.0 4.0 2.0 2.0 5.0 2.0 1.0 -270.0 9.0 10.0 0.0 8.0 4.0 3.0 5.0 1.0 0.0 0.0 0.0 6.0 8.0 2.0 4.0 9.0 6.0 7.0 3.0 3.0 3.0 5.0 9.0 0.0 9.0 7.0 3.0 6.0 7.0 4.0 5.0 6.0 6.0 3.0 6.0 
10.0 4.0 8.0 9.0 4.0 7.0 9.0 0.0 1.0 4.0 3.0 8.0 8.0 9.0 3.0 9.0 6.0 0.0 10.0 4.0 1.0 2.0 10.0 1.0 1.0 9.0 -299.0 3.0 3.0 5.0 8.0 9.0 0.0 4.0 2.0 8.0 6.0 3.0 3.0 7.0 7.0 4.0 7.0 4.0 10.0 2.0 9.0 10.0 4.0 5.0 2.0 0.0 3.0 4.0 6.0 2.0 0.0 10.0 2.0 1.0 6.0 
5.0 1.0 6.0 2.0 1.0 1.0 5.0 4.0 2.0 6.0 0.0 5.0 2.0 1.0 1.0 6.0 0.0 3.0 3.0 9.0 9.0 3.0 10.0 0.0 3.0 10.0 3.0 -283.0 6.0 9.0 2.0 10.0 7.0 9.0 8.0 8.0 1.0 6.0 3.0 10.0 10.0 5.0 10.0 9.0 2.0 1.0 6.0 6.0 3.0 6.0 0.0 4.0 0.0 3.0 6.0 9.0 5.0 8.0 8.0 1.0 1.0 
8.0 9.0 10.0 8.0 1.0 5.0 0.0 2.0 7.0 8.0 7.0 7.0 10.0 6.0 4.0 3.0 1.0 9.0 10.0 6.0 1.0 3.0 9.0 9.0 3.0 0.0 3.0 6.0 -296.0 6.0 4.0 0.0 10.0 4.0 4.0 6.0 4.0 6.0 7.0 5.0 1.0 3.0 3.0 0.0 5.0 6.0 5.0 10.0 7.0 10.0 2.0 1.0 5.0 0.0 4.0 0.0 4.0 9.0 7.0 0.0 3.0 
2.0 8.0 7.0 9.0 4.0 9.0 1.0 9.0 9.0 2.0 3.0 7.0 5.0 7.0 5.0 3.0 4.0 10.0 7.0 10.0 7.0 0.0 7.0 8.0 7.0 8.0 5.0 9.0 6.0 -335.0 3.0 1.0 5.0 9.0 7.0 0.0 9.0 2.0 6.0 5.0 6.0 4.0 8.0 0.0 0.0 10.0 0.0 9.0 5.0 10.0 6.0 7.0 8.0 5.0 8.0 10.0 0.0 0.0 8.0 2.0 4.0 
8.0 9.0 9.0 5.0 8.0 0.0 2.0 1.0 2.0 8.0 5.0 8.0 9.0 4.0 9.0 10.0 2.0 6.0 6.0 6.0 9.0 8.0 8.0 0.0 3.0 4.0 8.0 2.0 4.0 3.0 -333.0 8.0 1.0 0.0 2.0 5.0 5.0 3.0 6.0 9.0 0.0 9.0 10.0 5.0 7.0 10.0 8.0 5.0 7.0 1.0 0.0 5.0 6.0 6.0 5.0 7.0 3.0 8.0 10.0 6.0 10.0 
7.0 4.0 9.0 7.0 1.0 3.0 0.0 1.0 7.0 9.0 5.0 6.0 3.0 0.0 10.0 6.0 4.0 2.0 1.0 7.0 0.0 4.0 7.0 3.0 1.0 3.0 9.0 10.0 0.0 1.0 8.0 -294.0 6.0 0.0 7.0 10.0 5.0 2.0 10.0 4.0 6.0 8.0 6.0 8.0 4.0 9.0 8.0 7.0 4.0 7.0 2.0 2.0 0.0 6.0 10.0 3.0 4.0 5.0 8.0 0.0 5.0 
5.0 4.0 3.0 5.0 6.0 1.0 7.0 9.0 1.0 0.0 8.0 10.0 9.0 4.0 8.0 1.0 8.0 7.0 3.0 8.0 5.0 1.0 7.0 0.0 4.0 5.0 0.0 7.0 10.0 5.0 1.0 6.0 -308.0 4.0 1.0 2.0 3.0 5.0 2.0 6.0 10.0 5.0 6.0 5.0 5.0 1.0 10.0 0.0 0.0 4.0 10.0 8.0 6.0 7.0 8.0 9.0 9.0 8.0 5.0 3.0 8.0 
6.0 7.0 10.0 1.0 0.0 5.0 2.0 7.0 10.0 3.0 8.0 3.0 7.0 0.0 5.0 5.0 6.0 7.0 2.0 4.0 4.0 3.0 1.0 8.0 4.0 1.0 4.0 9.0 4.0 9.0 0.0 0.0 4.0 -310.0 6.0 9.0 8.0 8.0 6.0 1.0 4.0 4.0 2.0 8.0 8.0 9.0 10.0 3.0 5.0 6.0 5.0 4.0 7.0 2.0 2.0 5.0 2.0 9.0 10.0 9.0 9.0 
9.0 6.0 8.0 2.0 2.0 5.0 1.0 8.0 10.0 4.0 0.0 5.0 4.0 10.0 6.0 7.0 0.0 4.0 10.0 10.0 1.0 8.0 8.0 3.0 7.0 0.0 2.0 8.0 4.0 7.0 2.0 7.0 1.0 6.0 -290.0 4.0 4.0 9.0 7.0 0.0 5.0 9.0 7.0 2.0 4.0 9.0 6.0 7.0 0.0 5.0 1.0 8.0 4.0 5.0 0.0 4.0 4.0 0.0 6.0 2.0 3.0 
1.0 7.0 0.0 0.0 0.0 7.0 8.0 5.0 6.0 6.0 4.0 1.0 3.0 3.0 3.0 5.0 7.0 9.0 6.0 9.0 3.0 6.0 2.0 6.0 10.0 0.0 8.0 8.0 6.0 0.0 5.0 10.0 2.0 9.0 4.0 -293.0 6.0 3.0 2.0 2.0 5.0 8.0 3.0 6.0 5.0 7.0 3.0 9.0 10.0 2.0 3.0 5.0 3.0 10.0 5.0 7.0 7.0 2.0 10.0 0.0 1.0 
1.0 1.0 6.0 6.0 6.0 8.0 5.0 9.0 2.0 0.0 1.0 0.0 2.0 4.0 3.0 6.0 8.0 7.0 1.0 2.0 8.0 10.0 1.0 9.0 8.0 0.0 6.0 1.0 4.0 9.0 5.0 5.0 3.0 8.0 4.0 6.0 -268.0 1.0 4.0 7.0 3.0 1.0 5.0 1.0 4.0 7.0 0.0 4.0 3.0 7.0 0.0 1.0 10.0 9.0 8.0 0.0 7.0 8.0 7.0 1.0 5.0 
5.0 8.0 8.0 0.0 5.0 8.0 6.0 3.0 8.0 7.0 6.0 6.0 2.0 4.0 4.0 8.0 5.0 3.0 2.0 1.0 2.0 10.0 7.0 1.0 2.0 6.0 3.0 6.0 6.0 2.0 3.0 2.0 5.0 8.0 9.0 3.0 1.0 -314.0 4.0 6.0 3.0 5.0 8.0 4.0 8.0 0.0 3.0 4.0 10.0 7.0 8.0 9.0 10.0 10.0 4.0 8.0 4.0 9.0 9.0 1.0 5.0 
10.0 3.0 1.0 6.0 5.0 7.0 4.0 7.0 5.0 8.0 2.0 10.0 10.0 10.0 8.0 9.0 4.0 0.0 10.0 5.0 3.0 5.0 0.0 0.0 8.0 8.0 3.0 3.0 7.0 6.0 6.0 10.0 2.0 6.0 7.0 2.0 4.0 4.0 -299.0 10.0 0.0 8.0 3.0 1.0 1.0 1.0 4.0 8.0 4.0 9.0 3.0 3.0 3.0 0.0 0.0 4.0 5.0 10.0 3.0 4.0 7.0 
1.0 3.0 0.0 10.0 4.0 7.0 3.0 10.0 0.0 1.0 5.0 7.0 1.0 5.0 2.0 4.0 10.0 0.0 8.0 6.0 10.0 7.0 2.0 8.0 5.0 2.0 7.0 10.0 5.0 5.0 9.0 4.0 6.0 1.0 0.0 2.0 7.0 6.0 10.0 -286.0 1.0 6.0 4.0 4.0 0.0 0.0 5.0 3.0 9.0 9.0 6.0 3.0 9.0 1.0 10.0 3.0 0.0 8.0 3.0 9.0 0.0 
2.0 3.0 2.0 9.0 4.0 6.0 6.0 3.0 4.0 3.0 9.0 9.0 5.0 8.0 9.0 6.0 4.0 7.0 7.0 10.0 7.0 10.0 1.0 4.0 5.0 4.0 7.0 10.0 1.0 6.0 0.0 6.0 10.0 4.0 5.0 5.0 3.0 3.0 0.0 1.0 -323.0 5.0 8.0 5.0 6.0 10.0 7.0 7.0 10.0 2.0 6.0 1.0 0.0 6.0 0.0 8.0 6.0 4.0 9.0 5.0 10.0 
3.0 2.0 10.0 2.0 2.0 7.0 2.0 4.0 6.0 7.0 2.0 4.0 0.0 7.0 9.0 5.0 7.0 5.0 6.0 2.0 2.0 3.0 5.0 2.0 9.0 9.0 4.0 5.0 3.0 4.0 9.0 8.0 5.0 4.0 9.0 8.0 1.0 5.0 8.0 6.0 5.0 -322.0 10.0 3.0 10.0 5.0 10.0 6.0 9.0 6.0 3.0 2.0 7.0 1.0 9.0 3.0 10.0 9.0 3.0 1.0 9.0 
2.0 2.0 2.0 9.0 3.0 8.0 10.0 7.0 9.0 5.0 6.0 7.0 8.0 3.0 0.0 6.0 1.0 3.0 4.0 6.0 3.0 8.0 7.0 7.0 3.0 6.0 7.0 10.0 3.0 8.0 10.0 6.0 6.0 2.0 7.0 3.0 5.0 8.0 3.0 4.0 8.0 10.0 -325.0 1.0 7.0 3.0 3.0 10.0 2.0 2.0 6.0 8.0 9.0 1.0 1.0 10.0 1.0 5.0 6.0 5.0 10.0 
5.0 6.0 8.0 5.0 1.0 2.0 1.0 0.0 1.0 9.0 0.0 2.0 5.0 6.0 9.0 8.0 2.0 7.0 1.0 5.0 6.0 1.0 8.0 5.0 2.0 7.0 4.0 9.0 0.0 0.0 5.0 8.0 5.0 8.0 2.0 6.0 1.0 4.0 1.0 4.0 5.0 3.0 1.0 -275.0 2.0 10.0 2.0 3.0 9.0 5.0 8.0 7.0 0.0 6.0 7.0 9.0 9.0 2.0 4.0 6.0 8.0 
6.0 7.0 3.0 10.0 8.0 7.0 1.0 9.0 1.0 10.0 4.0 8.0 7.0 4.0 8.0 3.0 1.0 2.0 2.0 3.0 1.0 5.0 6.0 1.0 8.0 3.0 10.0 2.0 5.0 0.0 7.0 4.0 5.0 8.0 4.0 5.0 4.0 8.0 1.0 0.0 6.0 10.0 7.0 2.0 -313.0 3.0 10.0 3.0 10.0 8.0 6.0 8.0 9.0 10.0 0.0 10.0 6.0 4.0 7.0 0.0 3.0 
9.0 3.0 1.0 1.0 4.0 8.0 0.0 9.0 0.0 2.0 4.0 6.0 6.0 10.0 7.0 2.0 6.0 8.0 1.0 1.0 6.0 5.0 10.0 6.0 1.0 3.0 2.0 1.0 6.0 10.0 10.0 9.0 1.0 9.0 9.0 7.0 7.0 0.0 1.0 0.0 10.0 5.0 3.0 10.0 3.0 -321.0 9.0 9.0 10.0 1.0 10.0 4.0 6.0 3.0 8.0 6.0 4.0 8.0 8.0 6.0 7.0 
9.0 10.0 2.0 7.0 6.0 6.0 3.0 7.0 4.0 2.0 7.0 4.0 0.0 4.0 8.0 0.0 4.0 9.0 2.0 10.0 5.0 8.0 0.0 7.0 7.0 3.0 9.0 6.0 5.0 0.0 8.0 8.0 10.0 10.0 6.0 3.0 0.0 3.0 4.0 5.0 7.0 10.0 3.0 2.0 10.0 9.0 -333.0 4.0 9.0 4.0 6.0 7.0 6.0 4.0 4.0 2.0 10.0 3.0 9.0 3.0 10.0 
2.0 2.0 0.0 0.0 6.0 3.0 6.0 10.0 4.0 6.0 10.0 3.0 8.0 3.0 4.0 0.0 10.0 1.0 4.0 10.0 4.0 4.0 8.0 2.0 4.0 5.0 10.0 6.0 10.0 9.0 5.0 7.0 0.0 3.0 7.0 9.0 4.0 4.0 8.0 3.0 7.0 6.0 10.0 3.0 3.0 9.0 4.0 -324.0 9.0 3.0 0.0 10.0 0.0 10.0 4.0 5.0 8.0 4.0 5.0 10.0 10.0 
0.0 8.0 0.0 7.0 4.0 10.0 10.0 9.0 7.0 10.0 10.0 2.0 7.0 8.0 10.0 2.0 10.0 9.0 5.0 5.0 9.0 1.0 8.0 8.0 9.0 9.0 4.0 3.0 7.0 5.0 7.0 4.0 0.0 5.0 0.0 10.0 3.0 10.0 4.0 9.0 10.0 9.0 2.0 9.0 10.0 10.0 9.0 9.0 -370.0 2.0 10.0 9.0 9.0 2.0 4.0 0.0 2.0 3.0 2.0 8.0 3.0 
9.0 2.0 1.0 7.0 2.0 1.0 0.0 9.0 10.0 9.0 10.0 0.0 9.0 0.0 2.0 7.0 5.0 0.0 10.0 4.0 9.0 4.0 3.0 2.0 3.0 0.0 5.0 6.0 10.0 10.0 1.0 7.0 4.0 6.0 5.0 2.0 7.0 7.0 9.0 9.0 2.0 6.0 2.0 5.0 8.0 1.0 4.0 3.0 2.0 -271.0 0.0 7.0 2.0 1.0 5.0 0.0 9.0 2.0 2.0 1.0 3.0 
1.0 8.0 2.0 7.0 3.0 8.0 6.0 4.0 7.0 8.0 6.0 4.0 6.0 10.0 7.0 6.0 3.0 4.0 10.0 10.0 1.0 6.0 9.0 6.0 7.0 9.0 2.0 0.0 2.0 6.0 0.0 2.0 10.0 5.0 1.0 3.0 0.0 8.0 3.0 6.0 6.0 3.0 6.0 8.0 6.0 10.0 6.0 0.0 10.0 0.0 -305.0 4.0 6.0 4.0 1.0 9.0 2.0 7.0 2.0 3.0 6.0 
0.0 7.0 2.0 3.0 8.0 2.0 3.0 6.0 8.0 7.0 5.0 6.0 3.0 3.0 7.0 3.0 2.0 0.0 2.0 10.0 1.0 2.0 10.0 0.0 8.0 7.0 0.0 4.0 1.0 7.0 5.0 2.0 8.0 4.0 8.0 5.0 1.0 9.0 3.0 3.0 1.0 2.0 8.0 7.0 8.0 4.0 7.0 10.0 9.0 7.0 4.0 -288.0 10.0 9.0 4.0 5.0 0.0 8.0 1.0 2.0 7.0 
9.0 9.0 3.0 1.0 1.0 3.0 1.0 6.0 4.0 7.0 6.0 6.0 10.0 2.0 10.0 6.0 6.0 5.0 6.0 4.0 8.0 9.0 6.0 7.0 10.0 3.0 3.0 0.0 5.0 8.0 6.0 0.0 6.0 7.0 4.0 3.0 10.0 10.0 3.0 9.0 0.0 7.0 9.0 0.0 9.0 6.0 6.0 0.0 9.0 2.0 6.0 10.0 -343.0 10.0 8.0 10.0 9.0 2.0 6.0 9.0 3.0 
7.0 6.0 6.0 8.0 7.0 4.0 8.0 9.0 1.0 8.0 6.0 2.0 0.0 7.0 10.0 8.0 3.0 5.0 0.0 10.0 0.0 2.0 6.0 3.0 7.0 6.0 4.0 3.0 0.0 5.0 6.0 6.0 7.0 2.0 5.0 10.0 9.0 10.0 0.0 1.0 6.0 1.0 1.0 6.0 10.0 3.0 4.0 10.0 2.0 1.0 4.0 9.0 10.0 -321.0 7.0 7.0 3.0 6.0 10.0 9.0 5.0 
10.0 10.0 3.0 7.0 4.0 10.0 5.0 4.0 5.0 2.0 1.0 6.0 5.0 3.0 2.0 5.0 9.0 4.0 9.0 0.0 8.0 4.0 6.0 4.0 3.0 7.0 6.0 6.0 4.0 8.0 5.0 10.0 8.0 2.0 0.0 5.0 8.0 4.0 0.0 10.0 0.0 9.0 1.0 7.0 0.0 8.0 4.0 4.0 4.0 5.0 1.0 4.0 8.0 7.0 -308.0 2.0 4.0 10.0 4.0 10.0 4.0 
2.0 2.0 6.0 10.0 6.0 0.0 9.0 9.0 4.0 8.0 9.0 7.0 3.0 0.0 9.0 2.0 0.0 10.0 5.0 5.0 1.0 4.0 7.0 2.0 4.0 4.0 2.0 9.0 0.0 10.0 7.0 3.0 9.0 5.0 4.0 7.0 0.0 8.0 4.0 3.0 8.0 3.0 10.0 9.0 10.0 6.0 2.0 5.0 0.0 0.0 9.0 5.0 10.0 7.0 2.0 -310.0 4.0 2.0 10.0 4.0 5.0 
6.0 0.0 4.0 2.0 4.0 2.0 1.0 3.0 6.0 4.0 6.0 5.0 7.0 0.0 0.0 1.0 6.0 6.0 7.0 2.0 0.0 3.0 2.0 2.0 6.0 5.0 0.0 5.0 4.0 0.0 3.0 4.0 9.0 2.0 4.0 7.0 7.0 4.0 5.0 0.0 6.0 10.0 1.0 9.0 6.0 4.0 10.0 8.0 2.0 9.0 2.0 0.0 9.0 3.0 4.0 4.0 -239.0 0.0 6.0 1.0 1.0 
3.0 0.0 3.0 2.0 9.0 6.0 7.0 0.0 0.0 8.0 6.0 7.0 0.0 4.0 10.0 0.0 5.0 5.0 1.0 8.0 6.0 5.0 4.0 4.0 7.0 6.0 10.0 8.0 9.0 0.0 8.0 5.0 8.0 9.0 0.0 2.0 8.0 9.0 10.0 8.0 4.0 9.0 5.0 2.0 4.0 8.0 3.0 4.0 3.0 2.0 7.0 8.0 2.0 6.0 10.0 2.0 0.0 -310.0 6.0 5.0 10.0 
7.0 0.0 5.0 10.0 3.0 7.0 1.0 2.0 4.0 0.0 1.0 2.0 7.0 0.0 3.0 2.0 4.0 9.0 10.0 3.0 7.0 4.0 10.0 7.0 3.0 6.0 2.0 8.0 7.0 8.0 10.0 8.0 5.0 10.0 6.0 10.0 7.0 9.0 3.0 3.0 9.0 3.0 6.0 4.0 7.0 8.0 9.0 5.0 2.0 2.0 2.0 1.0 6.0 10.0 4.0 10.0 6.0 6.0 -317.0 2.0 2.0 
0.0 0.0 6.0 3.0 10.0 7.0 2.0 5.0 7.0 7.0 3.0 1.0 3.0 3.0 10.0 0.0 1.0 0.0 4.0 2.0 1.0 9.0 1.0 9.0 5.0 3.0 1.0 1.0 0.0 2.0 6.0 0.0 3.0 9.0 2.0 0.0 1.0 1.0 4.0 9.0 5.0 1.0 5.0 6.0 0.0 6.0 3.0 10.0 8.0 1.0 3.0 2.0 9.0 9.0 10.0 4.0 1.0 5.0 2.0 -235.0 4.0 
0.0 0.0 0.0 4.0 7.0 6.0 10.0 10.0 4.0 1.0 6.0 7.0 3.0 9.0 9.0 4.0 6.0 5.0 2.0 3.0 7.0 3.0 2.0 8.0 10.0 6.0 6.0 1.0 3.0 4.0 10.0 5.0 8.0 9.0 3.0 1.0 5.0 5.0 7.0 0.0 10.0 9.0 10.0 8.0 3.0 7.0 10.0 10.0 3.0 3.0 6.0 7.0 3.0 5.0 4.0 5.0 1.0 10.0 2.0 4.0 -319.0 

